results/mps/SNT_01_makespan.mps
NAME Model5
ROWS
 N  OBJ
 E  c0      
 E  c1      
 E  c2      
 E  c3      
 L  c4      
 L  c5      
 L  c6      
 L  c7      
 G  c8      
 G  c9      
 G  c10     
 G  c11     
 G  c12     
 G  c13     
 G  c14     
 G  c15     
 G  c16     
 G  c17     
 G  c18     
 G  c19     
 G  c20     
 G  c21     
 G  c22     
 G  c23     
 G  c24     
COLUMNS
    MARKER    'MARKER'                 'INTORG'
    y[j0_l0_i0]  c0        1
    y[j0_l0_i0]  c4        -1000
    y[j0_l0_i0]  c13       -1
    y[j0_l0_i0]  c20       -3
    y[j0_l0_i0]  c21       -3
    y[j0_l0_i0]  c24       -3
    y[j0_l1_i1]  c1        1
    y[j0_l1_i1]  c5        -1000
    y[j0_l1_i1]  c8        -1000
    y[j0_l1_i1]  c9        -1000
    y[j0_l1_i1]  c10       -1000
    y[j0_l1_i1]  c11       -1000
    y[j0_l1_i1]  c15       -1
    y[j0_l1_i1]  c22       -2
    y[j0_l1_i1]  c24       -2
    y[j0_l2_i2]  c2        1
    y[j0_l2_i2]  c6        -1000
    y[j0_l2_i2]  c17       -1
    y[j0_l2_i2]  c23       -3
    y[j0_l2_i2]  c24       -3
    y[j0_l3_i1]  c3        1
    y[j0_l3_i1]  c7        -1000
    y[j0_l3_i1]  c8        -1000
    y[j0_l3_i1]  c9        -1000
    y[j0_l3_i1]  c10       -1000
    y[j0_l3_i1]  c11       -1000
    y[j0_l3_i1]  c19       -1
    y[j0_l3_i1]  c24       -2
    x[j1l10_0_j2l20_0]  OBJ       0
    x[j1l10_0_j2l20_1]  OBJ       0
    x[j1l10_0_j2l20_2]  OBJ       0
    x[j1l10_0_j2l20_3]  OBJ       0
    x[j1l10_1_j2l20_0]  OBJ       0
    x[j1l10_1_j2l20_1]  OBJ       0
    x[j1l10_1_j2l20_2]  OBJ       0
    x[j1l10_1_j2l20_3]  c8        -1000
    x[j1l10_1_j2l20_3]  c9        1000
    x[j1l10_2_j2l20_0]  OBJ       0
    x[j1l10_2_j2l20_1]  OBJ       0
    x[j1l10_2_j2l20_2]  OBJ       0
    x[j1l10_2_j2l20_3]  OBJ       0
    x[j1l10_3_j2l20_0]  OBJ       0
    x[j1l10_3_j2l20_1]  c10       -1000
    x[j1l10_3_j2l20_1]  c11       1000
    x[j1l10_3_j2l20_2]  OBJ       0
    x[j1l10_3_j2l20_3]  OBJ       0
    s[j0_l0_i0]  c4        1
    s[j0_l0_i0]  c12       1
    s[j0_l0_i0]  c13       1
    s[j0_l0_i0]  c20       -1
    s[j0_l0_i0]  c21       -1
    s[j0_l0_i0]  c24       -1
    s[j0_l1_i1]  c5        1
    s[j0_l1_i1]  c8        1
    s[j0_l1_i1]  c9        -1
    s[j0_l1_i1]  c10       -1
    s[j0_l1_i1]  c11       1
    s[j0_l1_i1]  c14       1
    s[j0_l1_i1]  c15       1
    s[j0_l1_i1]  c20       1
    s[j0_l1_i1]  c22       -1
    s[j0_l1_i1]  c24       -1
    s[j0_l2_i2]  c6        1
    s[j0_l2_i2]  c16       1
    s[j0_l2_i2]  c17       1
    s[j0_l2_i2]  c21       1
    s[j0_l2_i2]  c22       1
    s[j0_l2_i2]  c23       -1
    s[j0_l2_i2]  c24       -1
    s[j0_l3_i1]  c7        1
    s[j0_l3_i1]  c8        -1
    s[j0_l3_i1]  c9        1
    s[j0_l3_i1]  c10       1
    s[j0_l3_i1]  c11       -1
    s[j0_l3_i1]  c18       1
    s[j0_l3_i1]  c19       1
    s[j0_l3_i1]  c23       1
    s[j0_l3_i1]  c24       -1
    Z_FO      OBJ       1
    Z_FO      c24       1
    MARKER    'MARKER'                 'INTEND'
RHS
    RHS1      c0        1
    RHS1      c1        1
    RHS1      c2        1
    RHS1      c3        1
    RHS1      c8        -2998
    RHS1      c9        -1996
    RHS1      c10       -2996
    RHS1      c11       -1998
BOUNDS
 BV BND1      y[j0_l0_i0]
 BV BND1      y[j0_l1_i1]
 BV BND1      y[j0_l2_i2]
 BV BND1      y[j0_l3_i1]
 BV BND1      x[j1l10_0_j2l20_0]
 BV BND1      x[j1l10_0_j2l20_1]
 BV BND1      x[j1l10_0_j2l20_2]
 BV BND1      x[j1l10_0_j2l20_3]
 BV BND1      x[j1l10_1_j2l20_0]
 BV BND1      x[j1l10_1_j2l20_1]
 BV BND1      x[j1l10_1_j2l20_2]
 BV BND1      x[j1l10_1_j2l20_3]
 BV BND1      x[j1l10_2_j2l20_0]
 BV BND1      x[j1l10_2_j2l20_1]
 BV BND1      x[j1l10_2_j2l20_2]
 BV BND1      x[j1l10_2_j2l20_3]
 BV BND1      x[j1l10_3_j2l20_0]
 BV BND1      x[j1l10_3_j2l20_1]
 BV BND1      x[j1l10_3_j2l20_2]
 BV BND1      x[j1l10_3_j2l20_3]
 LI BND1      s[j0_l0_i0]  0
 LI BND1      s[j0_l1_i1]  0
 LI BND1      s[j0_l2_i2]  0
 LI BND1      s[j0_l3_i1]  0
 LI BND1      Z_FO      0
ENDATA
