results/sol/SNT_01_makespan.sol
# Solution for model F-JSSP-SDST-SC-DL-ID
# Objective value = 322
B0(11) 1
B1(11) 0
B2(9) 0
B3(9) 1
B4(11) 0
B5(11) 1
B6(11) 1
B7(11) 0
B8(0) 0
B9(0) 0
B10(4) 0
B11(4) 1
B12(0) 0
B13(0) 0
B14(4) 1
B15(4) 0
B16(0) 0
B17(0) 0
B18(0) 0
B19(4) 0
B20(0) 0
B21(0) 0
B22(0) 0
B23(0) 0
I24(13) 73
I25(13) 0
I26(11) 0
I27(11) 98
I28(11) 0
I29(11) 8
I30(11) 8
I31(11) 0
I32(1) 322
