results/log/SNT_01_makespan.log

Gurobi 10.0.1 (win64) logging started Wed Jul  5 16:48:05 2023

Set parameter LogFile to value "results/log/SNT_01_makespan.log"
Gurobi Optimizer version 10.0.1 build v10.0.1rc0 (win64)

CPU model: AMD Ryzen 7 3700X 8-Core Processor, instruction set [SSE2|AVX|AVX2]
Thread count: 8 physical cores, 16 logical processors, using up to 16 threads

Optimize a model with 25 rows, 25 columns and 65 nonzeros
Model fingerprint: 0x6d4f9128
Variable types: 0 continuous, 25 integer (20 binary)
Coefficient statistics:
  Matrix range     [1e+00, 1e+03]
  Objective range  [1e+00, 1e+00]
  Bounds range     [1e+00, 1e+00]
  RHS range        [1e+00, 3e+03]
Found heuristic solution: objective 30.0000000
Presolve removed 25 rows and 25 columns
Presolve time: 0.00s
Presolve: All rows and columns removed

Explored 0 nodes (0 simplex iterations) in 0.00 seconds (0.00 work units)
Thread count was 1 (of 16 available processors)

Solution count 2: 30 30 

Optimal solution found (tolerance 1.00e-04)
Best objective 3.000000000000e+01, best bound 3.000000000000e+01, gap 0.0000%
Warning: constraint name "precedence between 0,3 to 0,1 if x_[j,l,h,z,i]=1" has a space
Warning: constraint name "precedence between 0,3 to 0,1 if x_[j,l,h,z,i]=1" has a space
Warning: default constraint names used to write mps file
